
Gurobi 11.0.0 (mac64[x86], Python) logging started Sat Jul 13 14:35:10 2024

Set parameter Username
Set parameter LogFile to value "gurobi.log"
Academic license - for non-commercial use only - expires 2025-01-20
